non_linear/10K6L3M4.opb
* #variable= 45 #constraint= 100 #product= 720 sizeproduct= 45
min: ;
-3 x1 +1 x1 x2 x10 +1 x1 x3 x11 +1 x1 x4 x12 +1 x1 x5 x13 +1 x1 x6 x14 +1 x1 x7 x15 +1 x1 x8 x16 +1 x1 x9 x17 = 0;
+4 x1 +1 x2 x10 -1 x1 x2 x10 +1 x3 x11 -1 x1 x3 x11 +1 x4 x12 -1 x1 x4 x12 +1 x5 x13 -1 x1 x5 x13 +1 x6 x14 -1 x1 x6 x14 +1 x7 x15 -1 x1 x7 x15 +1 x8 x16 -1 x1 x8 x16 +1 x9 x17 -1 x1 x9 x17 = 4;
-3 x2 +1 x2 x1 x10 +1 x2 x3 x18 +1 x2 x4 x19 +1 x2 x5 x20 +1 x2 x6 x21 +1 x2 x7 x22 +1 x2 x8 x23 +1 x2 x9 x24 = 0;
+4 x2 +1 x1 x10 -1 x2 x1 x10 +1 x3 x18 -1 x2 x3 x18 +1 x4 x19 -1 x2 x4 x19 +1 x5 x20 -1 x2 x5 x20 +1 x6 x21 -1 x2 x6 x21 +1 x7 x22 -1 x2 x7 x22 +1 x8 x23 -1 x2 x8 x23 +1 x9 x24 -1 x2 x9 x24 = 4;
-3 x3 +1 x3 x1 x11 +1 x3 x2 x18 +1 x3 x4 x25 +1 x3 x5 x26 +1 x3 x6 x27 +1 x3 x7 x28 +1 x3 x8 x29 +1 x3 x9 x30 = 0;
+4 x3 +1 x1 x11 -1 x3 x1 x11 +1 x2 x18 -1 x3 x2 x18 +1 x4 x25 -1 x3 x4 x25 +1 x5 x26 -1 x3 x5 x26 +1 x6 x27 -1 x3 x6 x27 +1 x7 x28 -1 x3 x7 x28 +1 x8 x29 -1 x3 x8 x29 +1 x9 x30 -1 x3 x9 x30 = 4;
-3 x4 +1 x4 x1 x12 +1 x4 x2 x19 +1 x4 x3 x25 +1 x4 x5 x31 +1 x4 x6 x32 +1 x4 x7 x33 +1 x4 x8 x34 +1 x4 x9 x35 = 0;
+4 x4 +1 x1 x12 -1 x4 x1 x12 +1 x2 x19 -1 x4 x2 x19 +1 x3 x25 -1 x4 x3 x25 +1 x5 x31 -1 x4 x5 x31 +1 x6 x32 -1 x4 x6 x32 +1 x7 x33 -1 x4 x7 x33 +1 x8 x34 -1 x4 x8 x34 +1 x9 x35 -1 x4 x9 x35 = 4;
-3 x5 +1 x5 x1 x13 +1 x5 x2 x20 +1 x5 x3 x26 +1 x5 x4 x31 +1 x5 x6 x36 +1 x5 x7 x37 +1 x5 x8 x38 +1 x5 x9 x39 = 0;
+4 x5 +1 x1 x13 -1 x5 x1 x13 +1 x2 x20 -1 x5 x2 x20 +1 x3 x26 -1 x5 x3 x26 +1 x4 x31 -1 x5 x4 x31 +1 x6 x36 -1 x5 x6 x36 +1 x7 x37 -1 x5 x7 x37 +1 x8 x38 -1 x5 x8 x38 +1 x9 x39 -1 x5 x9 x39 = 4;
-3 x6 +1 x6 x1 x14 +1 x6 x2 x21 +1 x6 x3 x27 +1 x6 x4 x32 +1 x6 x5 x36 +1 x6 x7 x40 +1 x6 x8 x41 +1 x6 x9 x42 = 0;
+4 x6 +1 x1 x14 -1 x6 x1 x14 +1 x2 x21 -1 x6 x2 x21 +1 x3 x27 -1 x6 x3 x27 +1 x4 x32 -1 x6 x4 x32 +1 x5 x36 -1 x6 x5 x36 +1 x7 x40 -1 x6 x7 x40 +1 x8 x41 -1 x6 x8 x41 +1 x9 x42 -1 x6 x9 x42 = 4;
-3 x7 +1 x7 x1 x15 +1 x7 x2 x22 +1 x7 x3 x28 +1 x7 x4 x33 +1 x7 x5 x37 +1 x7 x6 x40 +1 x7 x8 x43 +1 x7 x9 x44 = 0;
+4 x7 +1 x1 x15 -1 x7 x1 x15 +1 x2 x22 -1 x7 x2 x22 +1 x3 x28 -1 x7 x3 x28 +1 x4 x33 -1 x7 x4 x33 +1 x5 x37 -1 x7 x5 x37 +1 x6 x40 -1 x7 x6 x40 +1 x8 x43 -1 x7 x8 x43 +1 x9 x44 -1 x7 x9 x44 = 4;
-3 x8 +1 x8 x1 x16 +1 x8 x2 x23 +1 x8 x3 x29 +1 x8 x4 x34 +1 x8 x5 x38 +1 x8 x6 x41 +1 x8 x7 x43 +1 x8 x9 x45 = 0;
+4 x8 +1 x1 x16 -1 x8 x1 x16 +1 x2 x23 -1 x8 x2 x23 +1 x3 x29 -1 x8 x3 x29 +1 x4 x34 -1 x8 x4 x34 +1 x5 x38 -1 x8 x5 x38 +1 x6 x41 -1 x8 x6 x41 +1 x7 x43 -1 x8 x7 x43 +1 x9 x45 -1 x8 x9 x45 = 4;
-3 x9 +1 x9 x1 x17 +1 x9 x2 x24 +1 x9 x3 x30 +1 x9 x4 x35 +1 x9 x5 x39 +1 x9 x6 x42 +1 x9 x7 x44 +1 x9 x8 x45 = 0;
+4 x9 +1 x1 x17 -1 x9 x1 x17 +1 x2 x24 -1 x9 x2 x24 +1 x3 x30 -1 x9 x3 x30 +1 x4 x35 -1 x9 x4 x35 +1 x5 x39 -1 x9 x5 x39 +1 x6 x42 -1 x9 x6 x42 +1 x7 x44 -1 x9 x7 x44 +1 x8 x45 -1 x9 x8 x45 = 4;
-3 x10 +1 x10 x1 x2 +1 x10 x11 x18 +1 x10 x12 x19 +1 x10 x13 x20 +1 x10 x14 x21 +1 x10 x15 x22 +1 x10 x16 x23 +1 x10 x17 x24 = 0;
+4 x10 +1 x1 x2 -1 x10 x1 x2 +1 x11 x18 -1 x10 x11 x18 +1 x12 x19 -1 x10 x12 x19 +1 x13 x20 -1 x10 x13 x20 +1 x14 x21 -1 x10 x14 x21 +1 x15 x22 -1 x10 x15 x22 +1 x16 x23 -1 x10 x16 x23 +1 x17 x24 -1 x10 x17 x24 = 4;
-3 x11 +1 x11 x1 x3 +1 x11 x10 x18 +1 x11 x12 x25 +1 x11 x13 x26 +1 x11 x14 x27 +1 x11 x15 x28 +1 x11 x16 x29 +1 x11 x17 x30 = 0;
+4 x11 +1 x1 x3 -1 x11 x1 x3 +1 x10 x18 -1 x11 x10 x18 +1 x12 x25 -1 x11 x12 x25 +1 x13 x26 -1 x11 x13 x26 +1 x14 x27 -1 x11 x14 x27 +1 x15 x28 -1 x11 x15 x28 +1 x16 x29 -1 x11 x16 x29 +1 x17 x30 -1 x11 x17 x30 = 4;
-3 x12 +1 x12 x1 x4 +1 x12 x10 x19 +1 x12 x11 x25 +1 x12 x13 x31 +1 x12 x14 x32 +1 x12 x15 x33 +1 x12 x16 x34 +1 x12 x17 x35 = 0;
+4 x12 +1 x1 x4 -1 x12 x1 x4 +1 x10 x19 -1 x12 x10 x19 +1 x11 x25 -1 x12 x11 x25 +1 x13 x31 -1 x12 x13 x31 +1 x14 x32 -1 x12 x14 x32 +1 x15 x33 -1 x12 x15 x33 +1 x16 x34 -1 x12 x16 x34 +1 x17 x35 -1 x12 x17 x35 = 4;
-3 x13 +1 x13 x1 x5 +1 x13 x10 x20 +1 x13 x11 x26 +1 x13 x12 x31 +1 x13 x14 x36 +1 x13 x15 x37 +1 x13 x16 x38 +1 x13 x17 x39 = 0;
+4 x13 +1 x1 x5 -1 x13 x1 x5 +1 x10 x20 -1 x13 x10 x20 +1 x11 x26 -1 x13 x11 x26 +1 x12 x31 -1 x13 x12 x31 +1 x14 x36 -1 x13 x14 x36 +1 x15 x37 -1 x13 x15 x37 +1 x16 x38 -1 x13 x16 x38 +1 x17 x39 -1 x13 x17 x39 = 4;
-3 x14 +1 x14 x1 x6 +1 x14 x10 x21 +1 x14 x11 x27 +1 x14 x12 x32 +1 x14 x13 x36 +1 x14 x15 x40 +1 x14 x16 x41 +1 x14 x17 x42 = 0;
+4 x14 +1 x1 x6 -1 x14 x1 x6 +1 x10 x21 -1 x14 x10 x21 +1 x11 x27 -1 x14 x11 x27 +1 x12 x32 -1 x14 x12 x32 +1 x13 x36 -1 x14 x13 x36 +1 x15 x40 -1 x14 x15 x40 +1 x16 x41 -1 x14 x16 x41 +1 x17 x42 -1 x14 x17 x42 = 4;
-3 x15 +1 x15 x1 x7 +1 x15 x10 x22 +1 x15 x11 x28 +1 x15 x12 x33 +1 x15 x13 x37 +1 x15 x14 x40 +1 x15 x16 x43 +1 x15 x17 x44 = 0;
+4 x15 +1 x1 x7 -1 x15 x1 x7 +1 x10 x22 -1 x15 x10 x22 +1 x11 x28 -1 x15 x11 x28 +1 x12 x33 -1 x15 x12 x33 +1 x13 x37 -1 x15 x13 x37 +1 x14 x40 -1 x15 x14 x40 +1 x16 x43 -1 x15 x16 x43 +1 x17 x44 -1 x15 x17 x44 = 4;
-3 x16 +1 x16 x1 x8 +1 x16 x10 x23 +1 x16 x11 x29 +1 x16 x12 x34 +1 x16 x13 x38 +1 x16 x14 x41 +1 x16 x15 x43 +1 x16 x17 x45 = 0;
+4 x16 +1 x1 x8 -1 x16 x1 x8 +1 x10 x23 -1 x16 x10 x23 +1 x11 x29 -1 x16 x11 x29 +1 x12 x34 -1 x16 x12 x34 +1 x13 x38 -1 x16 x13 x38 +1 x14 x41 -1 x16 x14 x41 +1 x15 x43 -1 x16 x15 x43 +1 x17 x45 -1 x16 x17 x45 = 4;
-3 x17 +1 x17 x1 x9 +1 x17 x10 x24 +1 x17 x11 x30 +1 x17 x12 x35 +1 x17 x13 x39 +1 x17 x14 x42 +1 x17 x15 x44 +1 x17 x16 x45 = 0;
+4 x17 +1 x1 x9 -1 x17 x1 x9 +1 x10 x24 -1 x17 x10 x24 +1 x11 x30 -1 x17 x11 x30 +1 x12 x35 -1 x17 x12 x35 +1 x13 x39 -1 x17 x13 x39 +1 x14 x42 -1 x17 x14 x42 +1 x15 x44 -1 x17 x15 x44 +1 x16 x45 -1 x17 x16 x45 = 4;
-3 x18 +1 x18 x2 x3 +1 x18 x10 x11 +1 x18 x19 x25 +1 x18 x20 x26 +1 x18 x21 x27 +1 x18 x22 x28 +1 x18 x23 x29 +1 x18 x24 x30 = 0;
+4 x18 +1 x2 x3 -1 x18 x2 x3 +1 x10 x11 -1 x18 x10 x11 +1 x19 x25 -1 x18 x19 x25 +1 x20 x26 -1 x18 x20 x26 +1 x21 x27 -1 x18 x21 x27 +1 x22 x28 -1 x18 x22 x28 +1 x23 x29 -1 x18 x23 x29 +1 x24 x30 -1 x18 x24 x30 = 4;
-3 x19 +1 x19 x2 x4 +1 x19 x10 x12 +1 x19 x18 x25 +1 x19 x20 x31 +1 x19 x21 x32 +1 x19 x22 x33 +1 x19 x23 x34 +1 x19 x24 x35 = 0;
+4 x19 +1 x2 x4 -1 x19 x2 x4 +1 x10 x12 -1 x19 x10 x12 +1 x18 x25 -1 x19 x18 x25 +1 x20 x31 -1 x19 x20 x31 +1 x21 x32 -1 x19 x21 x32 +1 x22 x33 -1 x19 x22 x33 +1 x23 x34 -1 x19 x23 x34 +1 x24 x35 -1 x19 x24 x35 = 4;
-3 x20 +1 x20 x2 x5 +1 x20 x10 x13 +1 x20 x18 x26 +1 x20 x19 x31 +1 x20 x21 x36 +1 x20 x22 x37 +1 x20 x23 x38 +1 x20 x24 x39 = 0;
+4 x20 +1 x2 x5 -1 x20 x2 x5 +1 x10 x13 -1 x20 x10 x13 +1 x18 x26 -1 x20 x18 x26 +1 x19 x31 -1 x20 x19 x31 +1 x21 x36 -1 x20 x21 x36 +1 x22 x37 -1 x20 x22 x37 +1 x23 x38 -1 x20 x23 x38 +1 x24 x39 -1 x20 x24 x39 = 4;
-3 x21 +1 x21 x2 x6 +1 x21 x10 x14 +1 x21 x18 x27 +1 x21 x19 x32 +1 x21 x20 x36 +1 x21 x22 x40 +1 x21 x23 x41 +1 x21 x24 x42 = 0;
+4 x21 +1 x2 x6 -1 x21 x2 x6 +1 x10 x14 -1 x21 x10 x14 +1 x18 x27 -1 x21 x18 x27 +1 x19 x32 -1 x21 x19 x32 +1 x20 x36 -1 x21 x20 x36 +1 x22 x40 -1 x21 x22 x40 +1 x23 x41 -1 x21 x23 x41 +1 x24 x42 -1 x21 x24 x42 = 4;
-3 x22 +1 x22 x2 x7 +1 x22 x10 x15 +1 x22 x18 x28 +1 x22 x19 x33 +1 x22 x20 x37 +1 x22 x21 x40 +1 x22 x23 x43 +1 x22 x24 x44 = 0;
+4 x22 +1 x2 x7 -1 x22 x2 x7 +1 x10 x15 -1 x22 x10 x15 +1 x18 x28 -1 x22 x18 x28 +1 x19 x33 -1 x22 x19 x33 +1 x20 x37 -1 x22 x20 x37 +1 x21 x40 -1 x22 x21 x40 +1 x23 x43 -1 x22 x23 x43 +1 x24 x44 -1 x22 x24 x44 = 4;
-3 x23 +1 x23 x2 x8 +1 x23 x10 x16 +1 x23 x18 x29 +1 x23 x19 x34 +1 x23 x20 x38 +1 x23 x21 x41 +1 x23 x22 x43 +1 x23 x24 x45 = 0;
+4 x23 +1 x2 x8 -1 x23 x2 x8 +1 x10 x16 -1 x23 x10 x16 +1 x18 x29 -1 x23 x18 x29 +1 x19 x34 -1 x23 x19 x34 +1 x20 x38 -1 x23 x20 x38 +1 x21 x41 -1 x23 x21 x41 +1 x22 x43 -1 x23 x22 x43 +1 x24 x45 -1 x23 x24 x45 = 4;
-3 x24 +1 x24 x2 x9 +1 x24 x10 x17 +1 x24 x18 x30 +1 x24 x19 x35 +1 x24 x20 x39 +1 x24 x21 x42 +1 x24 x22 x44 +1 x24 x23 x45 = 0;
+4 x24 +1 x2 x9 -1 x24 x2 x9 +1 x10 x17 -1 x24 x10 x17 +1 x18 x30 -1 x24 x18 x30 +1 x19 x35 -1 x24 x19 x35 +1 x20 x39 -1 x24 x20 x39 +1 x21 x42 -1 x24 x21 x42 +1 x22 x44 -1 x24 x22 x44 +1 x23 x45 -1 x24 x23 x45 = 4;
-3 x25 +1 x25 x3 x4 +1 x25 x11 x12 +1 x25 x18 x19 +1 x25 x26 x31 +1 x25 x27 x32 +1 x25 x28 x33 +1 x25 x29 x34 +1 x25 x30 x35 = 0;
+4 x25 +1 x3 x4 -1 x25 x3 x4 +1 x11 x12 -1 x25 x11 x12 +1 x18 x19 -1 x25 x18 x19 +1 x26 x31 -1 x25 x26 x31 +1 x27 x32 -1 x25 x27 x32 +1 x28 x33 -1 x25 x28 x33 +1 x29 x34 -1 x25 x29 x34 +1 x30 x35 -1 x25 x30 x35 = 4;
-3 x26 +1 x26 x3 x5 +1 x26 x11 x13 +1 x26 x18 x20 +1 x26 x25 x31 +1 x26 x27 x36 +1 x26 x28 x37 +1 x26 x29 x38 +1 x26 x30 x39 = 0;
+4 x26 +1 x3 x5 -1 x26 x3 x5 +1 x11 x13 -1 x26 x11 x13 +1 x18 x20 -1 x26 x18 x20 +1 x25 x31 -1 x26 x25 x31 +1 x27 x36 -1 x26 x27 x36 +1 x28 x37 -1 x26 x28 x37 +1 x29 x38 -1 x26 x29 x38 +1 x30 x39 -1 x26 x30 x39 = 4;
-3 x27 +1 x27 x3 x6 +1 x27 x11 x14 +1 x27 x18 x21 +1 x27 x25 x32 +1 x27 x26 x36 +1 x27 x28 x40 +1 x27 x29 x41 +1 x27 x30 x42 = 0;
+4 x27 +1 x3 x6 -1 x27 x3 x6 +1 x11 x14 -1 x27 x11 x14 +1 x18 x21 -1 x27 x18 x21 +1 x25 x32 -1 x27 x25 x32 +1 x26 x36 -1 x27 x26 x36 +1 x28 x40 -1 x27 x28 x40 +1 x29 x41 -1 x27 x29 x41 +1 x30 x42 -1 x27 x30 x42 = 4;
-3 x28 +1 x28 x3 x7 +1 x28 x11 x15 +1 x28 x18 x22 +1 x28 x25 x33 +1 x28 x26 x37 +1 x28 x27 x40 +1 x28 x29 x43 +1 x28 x30 x44 = 0;
+4 x28 +1 x3 x7 -1 x28 x3 x7 +1 x11 x15 -1 x28 x11 x15 +1 x18 x22 -1 x28 x18 x22 +1 x25 x33 -1 x28 x25 x33 +1 x26 x37 -1 x28 x26 x37 +1 x27 x40 -1 x28 x27 x40 +1 x29 x43 -1 x28 x29 x43 +1 x30 x44 -1 x28 x30 x44 = 4;
-3 x29 +1 x29 x3 x8 +1 x29 x11 x16 +1 x29 x18 x23 +1 x29 x25 x34 +1 x29 x26 x38 +1 x29 x27 x41 +1 x29 x28 x43 +1 x29 x30 x45 = 0;
+4 x29 +1 x3 x8 -1 x29 x3 x8 +1 x11 x16 -1 x29 x11 x16 +1 x18 x23 -1 x29 x18 x23 +1 x25 x34 -1 x29 x25 x34 +1 x26 x38 -1 x29 x26 x38 +1 x27 x41 -1 x29 x27 x41 +1 x28 x43 -1 x29 x28 x43 +1 x30 x45 -1 x29 x30 x45 = 4;
-3 x30 +1 x30 x3 x9 +1 x30 x11 x17 +1 x30 x18 x24 +1 x30 x25 x35 +1 x30 x26 x39 +1 x30 x27 x42 +1 x30 x28 x44 +1 x30 x29 x45 = 0;
+4 x30 +1 x3 x9 -1 x30 x3 x9 +1 x11 x17 -1 x30 x11 x17 +1 x18 x24 -1 x30 x18 x24 +1 x25 x35 -1 x30 x25 x35 +1 x26 x39 -1 x30 x26 x39 +1 x27 x42 -1 x30 x27 x42 +1 x28 x44 -1 x30 x28 x44 +1 x29 x45 -1 x30 x29 x45 = 4;
-3 x31 +1 x31 x4 x5 +1 x31 x12 x13 +1 x31 x19 x20 +1 x31 x25 x26 +1 x31 x32 x36 +1 x31 x33 x37 +1 x31 x34 x38 +1 x31 x35 x39 = 0;
+4 x31 +1 x4 x5 -1 x31 x4 x5 +1 x12 x13 -1 x31 x12 x13 +1 x19 x20 -1 x31 x19 x20 +1 x25 x26 -1 x31 x25 x26 +1 x32 x36 -1 x31 x32 x36 +1 x33 x37 -1 x31 x33 x37 +1 x34 x38 -1 x31 x34 x38 +1 x35 x39 -1 x31 x35 x39 = 4;
-3 x32 +1 x32 x4 x6 +1 x32 x12 x14 +1 x32 x19 x21 +1 x32 x25 x27 +1 x32 x31 x36 +1 x32 x33 x40 +1 x32 x34 x41 +1 x32 x35 x42 = 0;
+4 x32 +1 x4 x6 -1 x32 x4 x6 +1 x12 x14 -1 x32 x12 x14 +1 x19 x21 -1 x32 x19 x21 +1 x25 x27 -1 x32 x25 x27 +1 x31 x36 -1 x32 x31 x36 +1 x33 x40 -1 x32 x33 x40 +1 x34 x41 -1 x32 x34 x41 +1 x35 x42 -1 x32 x35 x42 = 4;
-3 x33 +1 x33 x4 x7 +1 x33 x12 x15 +1 x33 x19 x22 +1 x33 x25 x28 +1 x33 x31 x37 +1 x33 x32 x40 +1 x33 x34 x43 +1 x33 x35 x44 = 0;
+4 x33 +1 x4 x7 -1 x33 x4 x7 +1 x12 x15 -1 x33 x12 x15 +1 x19 x22 -1 x33 x19 x22 +1 x25 x28 -1 x33 x25 x28 +1 x31 x37 -1 x33 x31 x37 +1 x32 x40 -1 x33 x32 x40 +1 x34 x43 -1 x33 x34 x43 +1 x35 x44 -1 x33 x35 x44 = 4;
-3 x34 +1 x34 x4 x8 +1 x34 x12 x16 +1 x34 x19 x23 +1 x34 x25 x29 +1 x34 x31 x38 +1 x34 x32 x41 +1 x34 x33 x43 +1 x34 x35 x45 = 0;
+4 x34 +1 x4 x8 -1 x34 x4 x8 +1 x12 x16 -1 x34 x12 x16 +1 x19 x23 -1 x34 x19 x23 +1 x25 x29 -1 x34 x25 x29 +1 x31 x38 -1 x34 x31 x38 +1 x32 x41 -1 x34 x32 x41 +1 x33 x43 -1 x34 x33 x43 +1 x35 x45 -1 x34 x35 x45 = 4;
-3 x35 +1 x35 x4 x9 +1 x35 x12 x17 +1 x35 x19 x24 +1 x35 x25 x30 +1 x35 x31 x39 +1 x35 x32 x42 +1 x35 x33 x44 +1 x35 x34 x45 = 0;
+4 x35 +1 x4 x9 -1 x35 x4 x9 +1 x12 x17 -1 x35 x12 x17 +1 x19 x24 -1 x35 x19 x24 +1 x25 x30 -1 x35 x25 x30 +1 x31 x39 -1 x35 x31 x39 +1 x32 x42 -1 x35 x32 x42 +1 x33 x44 -1 x35 x33 x44 +1 x34 x45 -1 x35 x34 x45 = 4;
-3 x36 +1 x36 x5 x6 +1 x36 x13 x14 +1 x36 x20 x21 +1 x36 x26 x27 +1 x36 x31 x32 +1 x36 x37 x40 +1 x36 x38 x41 +1 x36 x39 x42 = 0;
+4 x36 +1 x5 x6 -1 x36 x5 x6 +1 x13 x14 -1 x36 x13 x14 +1 x20 x21 -1 x36 x20 x21 +1 x26 x27 -1 x36 x26 x27 +1 x31 x32 -1 x36 x31 x32 +1 x37 x40 -1 x36 x37 x40 +1 x38 x41 -1 x36 x38 x41 +1 x39 x42 -1 x36 x39 x42 = 4;
-3 x37 +1 x37 x5 x7 +1 x37 x13 x15 +1 x37 x20 x22 +1 x37 x26 x28 +1 x37 x31 x33 +1 x37 x36 x40 +1 x37 x38 x43 +1 x37 x39 x44 = 0;
+4 x37 +1 x5 x7 -1 x37 x5 x7 +1 x13 x15 -1 x37 x13 x15 +1 x20 x22 -1 x37 x20 x22 +1 x26 x28 -1 x37 x26 x28 +1 x31 x33 -1 x37 x31 x33 +1 x36 x40 -1 x37 x36 x40 +1 x38 x43 -1 x37 x38 x43 +1 x39 x44 -1 x37 x39 x44 = 4;
-3 x38 +1 x38 x5 x8 +1 x38 x13 x16 +1 x38 x20 x23 +1 x38 x26 x29 +1 x38 x31 x34 +1 x38 x36 x41 +1 x38 x37 x43 +1 x38 x39 x45 = 0;
+4 x38 +1 x5 x8 -1 x38 x5 x8 +1 x13 x16 -1 x38 x13 x16 +1 x20 x23 -1 x38 x20 x23 +1 x26 x29 -1 x38 x26 x29 +1 x31 x34 -1 x38 x31 x34 +1 x36 x41 -1 x38 x36 x41 +1 x37 x43 -1 x38 x37 x43 +1 x39 x45 -1 x38 x39 x45 = 4;
-3 x39 +1 x39 x5 x9 +1 x39 x13 x17 +1 x39 x20 x24 +1 x39 x26 x30 +1 x39 x31 x35 +1 x39 x36 x42 +1 x39 x37 x44 +1 x39 x38 x45 = 0;
+4 x39 +1 x5 x9 -1 x39 x5 x9 +1 x13 x17 -1 x39 x13 x17 +1 x20 x24 -1 x39 x20 x24 +1 x26 x30 -1 x39 x26 x30 +1 x31 x35 -1 x39 x31 x35 +1 x36 x42 -1 x39 x36 x42 +1 x37 x44 -1 x39 x37 x44 +1 x38 x45 -1 x39 x38 x45 = 4;
-3 x40 +1 x40 x6 x7 +1 x40 x14 x15 +1 x40 x21 x22 +1 x40 x27 x28 +1 x40 x32 x33 +1 x40 x36 x37 +1 x40 x41 x43 +1 x40 x42 x44 = 0;
+4 x40 +1 x6 x7 -1 x40 x6 x7 +1 x14 x15 -1 x40 x14 x15 +1 x21 x22 -1 x40 x21 x22 +1 x27 x28 -1 x40 x27 x28 +1 x32 x33 -1 x40 x32 x33 +1 x36 x37 -1 x40 x36 x37 +1 x41 x43 -1 x40 x41 x43 +1 x42 x44 -1 x40 x42 x44 = 4;
-3 x41 +1 x41 x6 x8 +1 x41 x14 x16 +1 x41 x21 x23 +1 x41 x27 x29 +1 x41 x32 x34 +1 x41 x36 x38 +1 x41 x40 x43 +1 x41 x42 x45 = 0;
+4 x41 +1 x6 x8 -1 x41 x6 x8 +1 x14 x16 -1 x41 x14 x16 +1 x21 x23 -1 x41 x21 x23 +1 x27 x29 -1 x41 x27 x29 +1 x32 x34 -1 x41 x32 x34 +1 x36 x38 -1 x41 x36 x38 +1 x40 x43 -1 x41 x40 x43 +1 x42 x45 -1 x41 x42 x45 = 4;
-3 x42 +1 x42 x6 x9 +1 x42 x14 x17 +1 x42 x21 x24 +1 x42 x27 x30 +1 x42 x32 x35 +1 x42 x36 x39 +1 x42 x40 x44 +1 x42 x41 x45 = 0;
+4 x42 +1 x6 x9 -1 x42 x6 x9 +1 x14 x17 -1 x42 x14 x17 +1 x21 x24 -1 x42 x21 x24 +1 x27 x30 -1 x42 x27 x30 +1 x32 x35 -1 x42 x32 x35 +1 x36 x39 -1 x42 x36 x39 +1 x40 x44 -1 x42 x40 x44 +1 x41 x45 -1 x42 x41 x45 = 4;
-3 x43 +1 x43 x7 x8 +1 x43 x15 x16 +1 x43 x22 x23 +1 x43 x28 x29 +1 x43 x33 x34 +1 x43 x37 x38 +1 x43 x40 x41 +1 x43 x44 x45 = 0;
+4 x43 +1 x7 x8 -1 x43 x7 x8 +1 x15 x16 -1 x43 x15 x16 +1 x22 x23 -1 x43 x22 x23 +1 x28 x29 -1 x43 x28 x29 +1 x33 x34 -1 x43 x33 x34 +1 x37 x38 -1 x43 x37 x38 +1 x40 x41 -1 x43 x40 x41 +1 x44 x45 -1 x43 x44 x45 = 4;
-3 x44 +1 x44 x7 x9 +1 x44 x15 x17 +1 x44 x22 x24 +1 x44 x28 x30 +1 x44 x33 x35 +1 x44 x37 x39 +1 x44 x40 x42 +1 x44 x43 x45 = 0;
+4 x44 +1 x7 x9 -1 x44 x7 x9 +1 x15 x17 -1 x44 x15 x17 +1 x22 x24 -1 x44 x22 x24 +1 x28 x30 -1 x44 x28 x30 +1 x33 x35 -1 x44 x33 x35 +1 x37 x39 -1 x44 x37 x39 +1 x40 x42 -1 x44 x40 x42 +1 x43 x45 -1 x44 x43 x45 = 4;
-3 x45 +1 x45 x8 x9 +1 x45 x16 x17 +1 x45 x23 x24 +1 x45 x29 x30 +1 x45 x34 x35 +1 x45 x38 x39 +1 x45 x41 x42 +1 x45 x43 x44 = 0;
+4 x45 +1 x8 x9 -1 x45 x8 x9 +1 x16 x17 -1 x45 x16 x17 +1 x23 x24 -1 x45 x23 x24 +1 x29 x30 -1 x45 x29 x30 +1 x34 x35 -1 x45 x34 x35 +1 x38 x39 -1 x45 x38 x39 +1 x41 x42 -1 x45 x41 x42 +1 x43 x44 -1 x45 x43 x44 = 4;
+1 x1 +1 x2 +1 x3 +1 x4 +1 x5 +1 x6 +1 x7 +1 x8 +1 x9 = 6;
+1 x1 +1 x10 +1 x11 +1 x12 +1 x13 +1 x14 +1 x15 +1 x16 +1 x17 = 6;
+1 x2 +1 x10 +1 x18 +1 x19 +1 x20 +1 x21 +1 x22 +1 x23 +1 x24 = 6;
+1 x3 +1 x11 +1 x18 +1 x25 +1 x26 +1 x27 +1 x28 +1 x29 +1 x30 = 6;
+1 x4 +1 x12 +1 x19 +1 x25 +1 x31 +1 x32 +1 x33 +1 x34 +1 x35 = 6;
+1 x5 +1 x13 +1 x20 +1 x26 +1 x31 +1 x36 +1 x37 +1 x38 +1 x39 = 6;
+1 x6 +1 x14 +1 x21 +1 x27 +1 x32 +1 x36 +1 x40 +1 x41 +1 x42 = 6;
+1 x7 +1 x15 +1 x22 +1 x28 +1 x33 +1 x37 +1 x40 +1 x43 +1 x44 = 6;
+1 x8 +1 x16 +1 x23 +1 x29 +1 x34 +1 x38 +1 x41 +1 x43 +1 x45 = 6;
+1 x9 +1 x17 +1 x24 +1 x30 +1 x35 +1 x39 +1 x42 +1 x44 +1 x45 = 6;
